119184.86
35 1 49 2 118 110 112 116 111 54 109 30 48 47 43 63 29 31 59 34 33 91 58 96 95 92 88 89 101 102 105 97 106 103 107 39 108 117 120 57 119 60 115 68 113 76 51 73 36 0 121 27 124 125 122 123 52 26 66 56 70 64 79 65 114 98 100 99 104 77 75 93 90 94 16 15 13 81 8 85 84 80 83 44 69 42 78 41 50 74 72 87 86 67 82 71 3 9 10 4 7 6 5 11 12 14 53 20 17 62 18 19 37 38 126 55 32 45 24 23 22 21 46 40 61 25 28